RT is False
Default write of storage_offers_DA.csv just to have a file (but constraint should be inactive)
Reading model...
...model read.
creating competitive generators file...
...competitive generators recorded.
Loading data...
.. day-ahead data read.
Compiling instance...
...instance created.
Creating Offer Mitigation (model will solve as dispatch if TRUE)...
...storage offer mitigation file created
Converting model to MPEC...
...converted
NOTE: initial MIP solve with only storage competitive to get feasible solution
Solving...

Welcome to IBM(R) ILOG(R) CPLEX(R) Interactive Optimizer 12.9.0.0
  with Simplex, Mixed Integer & Barrier Optimizers
5725-A06 5725-A29 5724-Y48 5724-Y49 5724-Y54 5724-Y55 5655-Y21
Copyright IBM Corp. 1988, 2019.  All Rights Reserved.

Type 'help' for a list of available commands.
Type 'help' followed by a command name for more
information on commands.

CPLEX> Logfile 'cplex.log' closed.
Logfile 'C:\Users\Luke\Desktop\competitiveMPEC_1.16\logs\tmpm2up4a27.cplex.log' open.
CPLEX> New value for parallel optimization mode: -1
CPLEX> New value for mixed integer optimality gap tolerance: 0.01
CPLEX> New value for feasibility tolerance: 0.01
CPLEX> New value for deterministic time limit in ticks: 100000
CPLEX> Problem 'C:\Users\Luke\Desktop\competitiveMPEC_1.16\logs\tmpkz1mga3o.pyomo.lp' read.
Read time = 0.19 sec. (13.86 ticks)
CPLEX> Problem name         : C:\Users\Luke\Desktop\competitiveMPEC_1.16\logs\tmpkz1mga3o.pyomo.lp
Objective sense      : Maximize
Variables            :   53321  [Nneg: 49,  Box: 21806,  Free: 4368,
                                 Binary: 27098]
Objective nonzeros   :    8946
Linear constraints   :  122164  [Less: 40983,  Greater: 58612,  Equal: 22569]
  Nonzeros           :  288471
  RHS nonzeros       :   66948

Variables            : Min LB: -5000.000        Max UB: 5000.000       
Objective nonzeros   : Min   : 1.600000         Max   : 838.8000       
Linear constraints   :
  Nonzeros           : Min   : 0.8500000        Max   : 2910000.       
  RHS nonzeros       : Min   : 1.000000         Max   : 3000000.       
CPLEX> CPXPARAM_Parallel                                -1
CPXPARAM_Simplex_Tolerances_Feasibility          0.01
CPXPARAM_DetTimeLimit                            100000
CPXPARAM_MIP_Tolerances_MIPGap                   0.01
Tried aggregator 3 times.
MIP Presolve eliminated 88236 rows and 19066 columns.
MIP Presolve added 3341 rows and 0 columns.
MIP Presolve modified 24446 coefficients.
Aggregator did 12842 substitutions.
Reduced MIP has 24427 rows, 20831 columns, and 68466 nonzeros.
Reduced MIP has 8229 binaries, 0 generals, 0 SOSs, and 0 indicators.
Presolve time = 0.22 sec. (166.00 ticks)
Probing fixed 422 vars, tightened 5110 bounds.
Probing time = 0.06 sec. (20.59 ticks)
Tried aggregator 2 times.
MIP Presolve eliminated 951 rows and 853 columns.
MIP Presolve modified 2971 coefficients.
Aggregator did 41 substitutions.
Reduced MIP has 23435 rows, 19937 columns, and 65583 nonzeros.
Reduced MIP has 7803 binaries, 0 generals, 0 SOSs, and 0 indicators.
Presolve time = 0.11 sec. (90.46 ticks)
Probing fixed 0 vars, tightened 202 bounds.
Probing time = 0.08 sec. (21.61 ticks)
Clique table members: 39298.
MIP emphasis: balance optimality and feasibility.
MIP search method: dynamic search.
Parallel mode: opportunistic, using up to 24 threads.
Root relaxation solution time = 0.33 sec. (466.05 ticks)

        Nodes                                         Cuts/
   Node  Left     Objective  IInf  Best Integer    Best Bound    ItCnt     Gap

      0     0        0.0000   243                      0.0000     5542         
*     0+    0                            0.0000        0.0000             0.00%
      0     0        cutoff              0.0000        0.0000     5542    0.00%
Elapsed time = 1.28 sec. (1047.55 ticks, tree = 0.01 MB, solutions = 1)

Root node processing (before b&c):
  Real time             =    1.30 sec. (1049.47 ticks)
Parallel b&c, 24 threads:
  Real time             =    0.00 sec. (0.00 ticks)
  Sync time (average)   =    0.00 sec.
  Wait time (average)   =    0.00 sec.
                          ------------
Total (root+branch&cut) =    1.30 sec. (1049.47 ticks)

Solution pool: 1 solution saved.

MIP - Integer optimal solution:  Objective =  1.0768417269e-09
Solution time =    1.31 sec.  Iterations = 5542  Nodes = 0
Deterministic time = 1049.62 ticks  (800.01 ticks/sec)

CPLEX> Incumbent solution written to file 'C:\Users\Luke\Desktop\competitiveMPEC_1.16\logs\tmpivpjjsfr.cplex.sol'.
CPLEX> NOTE: no warmstart specified for MIP iteration, default behavior is true
NOTE: resolving with all competitive generators using storage-only solution to warmstart
Solving...

Welcome to IBM(R) ILOG(R) CPLEX(R) Interactive Optimizer 12.9.0.0
  with Simplex, Mixed Integer & Barrier Optimizers
5725-A06 5725-A29 5724-Y48 5724-Y49 5724-Y54 5724-Y55 5655-Y21
Copyright IBM Corp. 1988, 2019.  All Rights Reserved.

Type 'help' for a list of available commands.
Type 'help' followed by a command name for more
information on commands.

CPLEX> Logfile 'cplex.log' closed.
Logfile 'C:\Users\Luke\Desktop\competitiveMPEC_1.16\logs\tmp4lokoa8t.cplex.log' open.
CPLEX> New value for parallel optimization mode: -1
CPLEX> New value for mixed integer optimality gap tolerance: 0.01
CPLEX> New value for feasibility tolerance: 0.01
CPLEX> New value for deterministic time limit in ticks: 100000
CPLEX> Problem 'C:\Users\Luke\Desktop\competitiveMPEC_1.16\logs\tmp_lew21ec.pyomo.lp' read.
Read time = 0.19 sec. (13.86 ticks)
CPLEX> MIP start file 'C:\Users\Luke\Desktop\competitiveMPEC_1.16\logs\tmpbvkpogaa.cplex.mst' read.
CPLEX> Problem name         : C:\Users\Luke\Desktop\competitiveMPEC_1.16\logs\tmp_lew21ec.pyomo.lp
Objective sense      : Maximize
Variables            :   53321  [Nneg: 49,  Box: 21806,  Free: 4368,
                                 Binary: 27098]
Objective nonzeros   :    8922
Linear constraints   :  122164  [Less: 40983,  Greater: 58612,  Equal: 22569]
  Nonzeros           :  288471
  RHS nonzeros       :   66948

Variables            : Min LB: -5000.000        Max UB: 5000.000       
Objective nonzeros   : Min   : 1.600000         Max   : 799.1000       
Linear constraints   :
  Nonzeros           : Min   : 0.8500000        Max   : 2910000.       
  RHS nonzeros       : Min   : 1.000000         Max   : 3000000.       
CPLEX> CPXPARAM_Parallel                                -1
CPXPARAM_Simplex_Tolerances_Feasibility          0.01
CPXPARAM_DetTimeLimit                            100000
CPXPARAM_MIP_Tolerances_MIPGap                   0.01
Warning:  No solution found from 1 MIP starts.
Retaining values of one MIP start for possible repair.
Tried aggregator 3 times.
MIP Presolve eliminated 88236 rows and 19066 columns.
MIP Presolve added 3341 rows and 0 columns.
MIP Presolve modified 24446 coefficients.
Aggregator did 12842 substitutions.
Reduced MIP has 24427 rows, 20831 columns, and 68466 nonzeros.
Reduced MIP has 8229 binaries, 0 generals, 0 SOSs, and 0 indicators.
Presolve time = 0.22 sec. (166.00 ticks)
Probing fixed 422 vars, tightened 5110 bounds.
Probing time = 0.05 sec. (20.59 ticks)
Tried aggregator 2 times.
MIP Presolve eliminated 951 rows and 853 columns.
MIP Presolve modified 2971 coefficients.
Aggregator did 41 substitutions.
Reduced MIP has 23435 rows, 19937 columns, and 65583 nonzeros.
Reduced MIP has 7803 binaries, 0 generals, 0 SOSs, and 0 indicators.
Presolve time = 0.11 sec. (90.47 ticks)
Probing fixed 0 vars, tightened 202 bounds.
Probing time = 0.08 sec. (21.61 ticks)
Clique table members: 39298.
MIP emphasis: balance optimality and feasibility.
MIP search method: dynamic search.
Parallel mode: opportunistic, using up to 24 threads.
Root relaxation solution time = 0.30 sec. (244.55 ticks)

        Nodes                                         Cuts/
   Node  Left     Objective  IInf  Best Integer    Best Bound    ItCnt     Gap

      0     0    96853.5078  1325                  96853.5078     6244         
      0     0    94364.3469   420                   Cuts: 772     6516         
      0     0    94080.3400   316                   Cuts: 531     6681         
      0     0    94080.3400   306                   Cuts: 241     6736         
      0     0    94080.3400   271                   Cuts: 226     6767         
      0     0    94080.3400   270                   Cuts: 186     6780         
      0     0    94080.3400   254                   Cuts: 165     6795         
      0     0    93499.5455   237                   Cuts: 160     6811         
      0     0    93499.5455   239                   Cuts: 154     6816         
Repair heuristic found nothing.
      0     2    93499.5455   239                  81291.4763     6816         
Elapsed time = 6.36 sec. (3884.43 ticks, tree = 0.02 MB, solutions = 0)
    123    50    44864.1955   192                  81291.4763     7862         
    341   149    35506.1977   175                  81291.4763    13971         
    596   351    22253.5771   156                  81291.4763    22087         
   1078   745    17253.4412   145                  81291.4763    34096         
   1603   807    32504.5158   151                  81291.4763    35429         
   2373  1125    21637.0522   125                  81291.4763    41617         
   3290  1669     8686.7778   117                  81291.4763    45619         
*  3645+ 1159                        25224.2296    81291.4763           222.28%
   4234  2106    31946.9418   132    25224.2296    81291.4763    47064  222.28%
   5305  1323    45093.3628   188    25224.2296    81291.4763    54588  222.28%
Elapsed time = 13.39 sec. (6893.12 ticks, tree = 13.95 MB, solutions = 2)
   5307  1885        cutoff          25224.2296    71809.3468    79188  184.68%
   5568    66        cutoff          25224.2296    60503.4911    83060  139.86%
   6298    55        cutoff          25224.2296    49775.9984    81568   97.33%
   6780    64        cutoff          25224.2296    29872.2329   106696   18.43%
   6969    65        cutoff          25224.2296    29872.2329   104753   18.43%
   6989    64    26848.4115    34    25224.2296    29872.2329   104578   18.43%

Cover cuts applied:  17
Implied bound cuts applied:  41
Flow cuts applied:  226
Mixed integer rounding cuts applied:  84
Gomory fractional cuts applied:  69

Root node processing (before b&c):
  Real time             =    5.77 sec. (3839.19 ticks)
Parallel b&c, 24 threads:
  Real time             =   25.08 sec. (12724.21 ticks)
  Sync time (average)   =    4.61 sec.
  Wait time (average)   =    0.07 sec.
                          ------------
Total (root+branch&cut) =   30.84 sec. (16563.40 ticks)

Solution pool: 2 solutions saved.

MIP - Integer optimal, tolerance (0.01/1e-06):  Objective =  2.5224229630e+04
Current MIP best bound =  2.5444970317e+04 (gap = 220.741, 0.88%)
Solution time =   30.84 sec.  Iterations = 109568  Nodes = 6998 (10)
Deterministic time = 16563.55 ticks  (537.01 ticks/sec)

CPLEX> Incumbent solution written to file 'C:\Users\Luke\Desktop\competitiveMPEC_1.16\logs\tmpfbagpi0h.cplex.sol'.
CPLEX> Exporting results... 
